; PUSH cw_2 SWAP1 CALLVALUE SWAP1 DUP3 => CALLVALUE PUSH cw_2 SWAP2 PUSH cw_2
(set-option :produce-proofs true)
; 
(set-info :status unknown)
(declare-fun storage_t ((_ BitVec 256) (_ BitVec 256) (_ BitVec 256) Int (_ BitVec 256)) (_ BitVec 256))
(declare-fun w_2 () (_ BitVec 256))
(declare-fun storage_s ((_ BitVec 256) (_ BitVec 256) (_ BitVec 256) Int (_ BitVec 256)) (_ BitVec 256))
(declare-fun exc_halt_t (Int) Bool)
(declare-fun exc_halt_s (Int) Bool)
(declare-fun stack_t ((_ BitVec 256) (_ BitVec 256) (_ BitVec 256) Int (_ BitVec 6)) (_ BitVec 256))
(declare-fun stack_s ((_ BitVec 256) (_ BitVec 256) (_ BitVec 256) Int (_ BitVec 6)) (_ BitVec 256))
(declare-fun sc_t (Int) (_ BitVec 6))
(declare-fun sc_s (Int) (_ BitVec 6))
(declare-fun used_gas_t ((_ BitVec 256) (_ BitVec 256) (_ BitVec 256) Int) Int)
(declare-fun used_gas_s ((_ BitVec 256) (_ BitVec 256) (_ BitVec 256) Int) Int)
(assert
 (exists ((x_0 (_ BitVec 256)) (x_CALLVALUE (_ BitVec 256)) )(let (($x2590 (forall ((w (_ BitVec 256)) )(let ((?x255 (storage_t x_0 w_2 x_CALLVALUE 4 w)))
 (let ((?x6295 (storage_s x_0 w_2 x_CALLVALUE 5 w)))
 (= ?x6295 ?x255))))
 ))
 (let (($x7854 (exc_halt_t 4)))
 (let (($x1862 (exc_halt_s 5)))
 (let (($x1994 (= $x1862 $x7854)))
 (let (($x7147 (forall ((n (_ BitVec 6)) )(let ((?x6736 (stack_t x_0 w_2 x_CALLVALUE 4 n)))
 (let ((?x10216 (stack_s x_0 w_2 x_CALLVALUE 5 n)))
 (let (($x5387 (= ?x10216 ?x6736)))
 (let ((?x7495 (sc_t 4)))
 (let (($x1022 (bvsle ?x7495 n)))
 (or $x1022 $x5387)))))))
 ))
 (let ((?x7495 (sc_t 4)))
 (let ((?x4319 (sc_s 5)))
 (let (($x3074 (= ?x4319 ?x7495)))
 (let ((?x11631 (used_gas_t x_0 w_2 x_CALLVALUE 0)))
 (let ((?x2153 (used_gas_s x_0 w_2 x_CALLVALUE 0)))
 (let (($x6084 (= ?x2153 ?x11631)))
 (let (($x11138 (forall ((w (_ BitVec 256)) )(let ((?x2679 (storage_t x_0 w_2 x_CALLVALUE 0 w)))
 (let ((?x10517 (storage_s x_0 w_2 x_CALLVALUE 0 w)))
 (= ?x10517 ?x2679))))
 ))
 (let (($x56 (exc_halt_t 0)))
 (let (($x57 (exc_halt_s 0)))
 (let (($x58 (= $x57 $x56)))
 (let (($x43 (forall ((n (_ BitVec 6)) )(let ((?x10452 (stack_t x_0 w_2 x_CALLVALUE 0 n)))
 (let ((?x1786 (stack_s x_0 w_2 x_CALLVALUE 0 n)))
 (let (($x6102 (= ?x1786 ?x10452)))
 (let ((?x63 (sc_t 0)))
 (let (($x4370 (bvsle ?x63 n)))
 (or $x4370 $x6102)))))))
 ))
 (let ((?x63 (sc_t 0)))
 (let ((?x72 (sc_s 0)))
 (let (($x73 (= ?x72 ?x63)))
 (let (($x10496 (not (= ((_ extract 6 6) (bvadd (_ bv1 7) (concat (_ bv0 1) (sc_t 3)))) (_ bv0 1)))))
 (let (($x9131 (exc_halt_t 3)))
 (let (($x2798 (= $x7854 (or $x9131 $x10496))))
 (let (($x11012 (forall ((w (_ BitVec 256)) )(let ((?x3282 (storage_t x_0 w_2 x_CALLVALUE 3 w)))
 (let ((?x255 (storage_t x_0 w_2 x_CALLVALUE 4 w)))
 (= ?x255 ?x3282))))
 ))
 (let (($x3242 (forall ((n (_ BitVec 6)) )(let ((?x10142 (stack_t x_0 w_2 x_CALLVALUE 3 n)))
 (let ((?x6736 (stack_t x_0 w_2 x_CALLVALUE 4 n)))
 (let ((?x10013 (sc_t 3)))
 (let (($x2131 (bvsle ?x10013 n)))
 (or $x2131 (= ?x6736 ?x10142)))))))
 ))
 (let (($x6477 (= ?x7495 (bvadd (_ bv1 6) (sc_t 3)))))
 (let (($x7503 (= (used_gas_t x_0 w_2 x_CALLVALUE 4) (+ 3 (used_gas_t x_0 w_2 x_CALLVALUE 3)))))
 (let (($x4031 (= $x9131 (or (exc_halt_t 2) (not (bvsle (_ bv0 6) (bvadd (_ bv61 6) (sc_t 2))))))))
 (let (($x11427 (forall ((w (_ BitVec 256)) )(let ((?x10675 (storage_t x_0 w_2 x_CALLVALUE 2 w)))
 (let ((?x3282 (storage_t x_0 w_2 x_CALLVALUE 3 w)))
 (= ?x3282 ?x10675))))
 ))
 (let (($x5608 (forall ((n (_ BitVec 6)) )(let ((?x5213 (stack_t x_0 w_2 x_CALLVALUE 2 n)))
 (let ((?x10142 (stack_t x_0 w_2 x_CALLVALUE 3 n)))
 (or (= ?x10142 ?x5213) (bvsle (bvadd (_ bv61 6) (sc_t 2)) n)))))
 ))
 (let ((?x11248 (sc_t 2)))
 (let ((?x10013 (sc_t 3)))
 (let (($x1017 (= ?x10013 ?x11248)))
 (let ((?x4341 (used_gas_t x_0 w_2 x_CALLVALUE 3)))
 (let (($x2856 (= (stack_t x_0 w_2 x_CALLVALUE 3 (bvadd (_ bv62 6) ?x10013)) (stack_t x_0 w_2 x_CALLVALUE 2 (bvadd (_ bv62 6) ?x11248)))))
 (let (($x11978 (= (stack_t x_0 w_2 x_CALLVALUE 3 (bvadd (_ bv61 6) ?x10013)) (stack_t x_0 w_2 x_CALLVALUE 2 (bvadd (_ bv63 6) ?x11248)))))
 (let (($x2336 (= (stack_t x_0 w_2 x_CALLVALUE 3 (bvadd (_ bv63 6) ?x10013)) (stack_t x_0 w_2 x_CALLVALUE 2 (bvadd (_ bv61 6) ?x11248)))))
 (let (($x4852 (exc_halt_t 1)))
 (let (($x9213 (or $x4852 (not (= ((_ extract 6 6) (bvadd (_ bv1 7) (concat (_ bv0 1) (sc_t 1)))) (_ bv0 1))))))
 (let (($x6733 (exc_halt_t 2)))
 (let (($x4921 (= $x6733 $x9213)))
 (let (($x5560 (forall ((w (_ BitVec 256)) )(let ((?x441 (storage_t x_0 w_2 x_CALLVALUE 1 w)))
 (let ((?x10675 (storage_t x_0 w_2 x_CALLVALUE 2 w)))
 (= ?x10675 ?x441))))
 ))
 (let (($x11401 (forall ((n (_ BitVec 6)) )(let ((?x9666 (sc_t 1)))
 (let (($x8463 (bvsle ?x9666 n)))
 (let ((?x4256 (stack_t x_0 w_2 x_CALLVALUE 1 n)))
 (let ((?x5213 (stack_t x_0 w_2 x_CALLVALUE 2 n)))
 (or (= ?x5213 ?x4256) $x8463))))))
 ))
 (let (($x9195 (= ?x11248 (bvadd (_ bv1 6) (sc_t 1)))))
 (let ((?x4667 (used_gas_t x_0 w_2 x_CALLVALUE 2)))
 (let (($x71 (= $x4852 (or $x56 (not (= ((_ extract 6 6) (bvadd (_ bv1 7) (concat (_ bv0 1) ?x63))) (_ bv0 1)))))))
 (let (($x11589 (forall ((w (_ BitVec 256)) )(let ((?x2679 (storage_t x_0 w_2 x_CALLVALUE 0 w)))
 (let ((?x441 (storage_t x_0 w_2 x_CALLVALUE 1 w)))
 (= ?x441 ?x2679))))
 ))
 (let (($x8679 (forall ((n (_ BitVec 6)) )(let ((?x63 (sc_t 0)))
 (let (($x4370 (bvsle ?x63 n)))
 (let ((?x10452 (stack_t x_0 w_2 x_CALLVALUE 0 n)))
 (let ((?x4256 (stack_t x_0 w_2 x_CALLVALUE 1 n)))
 (or (= ?x4256 ?x10452) $x4370))))))
 ))
 (let ((?x9666 (sc_t 1)))
 (let (($x11820 (= ?x9666 (bvadd (_ bv1 6) ?x63))))
 (let (($x9175 (exc_halt_s 4)))
 (let (($x5279 (not (= ((_ extract 6 6) (bvadd (_ bv1 7) (concat (_ bv0 1) (sc_s 4)))) (_ bv0 1)))))
 (let (($x4286 (= $x1862 (or (not (bvsle (_ bv0 6) (bvadd (_ bv61 6) (sc_s 4)))) $x5279 $x9175))))
 (let (($x7501 (forall ((w (_ BitVec 256)) )(let ((?x7172 (storage_s x_0 w_2 x_CALLVALUE 4 w)))
 (let ((?x6295 (storage_s x_0 w_2 x_CALLVALUE 5 w)))
 (= ?x6295 ?x7172))))
 ))
 (let (($x11838 (forall ((n (_ BitVec 6)) )(let ((?x9433 (sc_s 4)))
 (let ((?x1473 (bvadd (_ bv61 6) ?x9433)))
 (let (($x8164 (bvsle ?x1473 n)))
 (let ((?x8957 (stack_s x_0 w_2 x_CALLVALUE 4 n)))
 (let ((?x10216 (stack_s x_0 w_2 x_CALLVALUE 5 n)))
 (or (= ?x10216 ?x8957) $x8164)))))))
 ))
 (let (($x5789 (= ?x4319 (bvadd (_ bv1 6) (sc_s 4)))))
 (let (($x6023 (= (used_gas_s x_0 w_2 x_CALLVALUE 5) (+ 3 (used_gas_s x_0 w_2 x_CALLVALUE 4)))))
 (let ((?x9433 (sc_s 4)))
 (let ((?x9405 (bvadd (_ bv63 6) ?x9433)))
 (let ((?x5233 (stack_s x_0 w_2 x_CALLVALUE 4 ?x9405)))
 (let ((?x3405 (bvadd (_ bv62 6) ?x9433)))
 (let ((?x2563 (stack_s x_0 w_2 x_CALLVALUE 4 ?x3405)))
 (let ((?x1473 (bvadd (_ bv61 6) ?x9433)))
 (let ((?x6970 (stack_s x_0 w_2 x_CALLVALUE 4 ?x1473)))
 (let (($x706 (= $x9175 (or (exc_halt_s 3) (not (bvsle (_ bv0 6) (bvadd (_ bv62 6) (sc_s 3))))))))
 (let (($x8703 (forall ((w (_ BitVec 256)) )(let ((?x10501 (storage_s x_0 w_2 x_CALLVALUE 3 w)))
 (let ((?x7172 (storage_s x_0 w_2 x_CALLVALUE 4 w)))
 (= ?x7172 ?x10501))))
 ))
 (let (($x5073 (forall ((n (_ BitVec 6)) )(let ((?x3851 (sc_s 3)))
 (let ((?x1068 (bvadd (_ bv62 6) ?x3851)))
 (let (($x6547 (bvsle ?x1068 n)))
 (let ((?x10952 (stack_s x_0 w_2 x_CALLVALUE 3 n)))
 (let ((?x8957 (stack_s x_0 w_2 x_CALLVALUE 4 n)))
 (or (= ?x8957 ?x10952) $x6547)))))))
 ))
 (let ((?x3851 (sc_s 3)))
 (let (($x6040 (= ?x9433 ?x3851)))
 (let ((?x8828 (used_gas_s x_0 w_2 x_CALLVALUE 4)))
 (let (($x11936 (not (= ((_ extract 6 6) (bvadd (_ bv1 7) (concat (_ bv0 1) (sc_s 2)))) (_ bv0 1)))))
 (let (($x10052 (exc_halt_s 2)))
 (let (($x8103 (exc_halt_s 3)))
 (let (($x2307 (forall ((w (_ BitVec 256)) )(let ((?x6897 (storage_s x_0 w_2 x_CALLVALUE 2 w)))
 (let ((?x10501 (storage_s x_0 w_2 x_CALLVALUE 3 w)))
 (= ?x10501 ?x6897))))
 ))
 (let (($x7806 (forall ((n (_ BitVec 6)) )(let ((?x4252 (stack_s x_0 w_2 x_CALLVALUE 2 n)))
 (let ((?x10952 (stack_s x_0 w_2 x_CALLVALUE 3 n)))
 (or (bvsle (sc_s 2) n) (= ?x10952 ?x4252)))))
 ))
 (let (($x2865 (= ?x3851 (bvadd (_ bv1 6) (sc_s 2)))))
 (let ((?x6380 (used_gas_s x_0 w_2 x_CALLVALUE 3)))
 (let (($x7833 (= $x10052 (or (exc_halt_s 1) (not (bvsle (_ bv0 6) (bvadd (_ bv62 6) (sc_s 1))))))))
 (let (($x5464 (forall ((w (_ BitVec 256)) )(let ((?x11458 (storage_s x_0 w_2 x_CALLVALUE 1 w)))
 (let ((?x6897 (storage_s x_0 w_2 x_CALLVALUE 2 w)))
 (= ?x6897 ?x11458))))
 ))
 (let (($x8602 (forall ((n (_ BitVec 6)) )(let ((?x11148 (stack_s x_0 w_2 x_CALLVALUE 1 n)))
 (let ((?x4252 (stack_s x_0 w_2 x_CALLVALUE 2 n)))
 (or (bvsle (bvadd (_ bv62 6) (sc_s 1)) n) (= ?x4252 ?x11148)))))
 ))
 (let ((?x154 (sc_s 1)))
 (let ((?x2272 (sc_s 2)))
 (let (($x2312 (= ?x2272 ?x154)))
 (let ((?x8111 (used_gas_s x_0 w_2 x_CALLVALUE 2)))
 (let (($x9459 (= (stack_s x_0 w_2 x_CALLVALUE 2 (bvadd (_ bv62 6) ?x2272)) (stack_s x_0 w_2 x_CALLVALUE 1 (bvadd (_ bv63 6) ?x154)))))
 (let (($x8106 (= (stack_s x_0 w_2 x_CALLVALUE 2 (bvadd (_ bv63 6) ?x2272)) (stack_s x_0 w_2 x_CALLVALUE 1 (bvadd (_ bv62 6) ?x154)))))
 (let (($x8780 (exc_halt_s 1)))
 (let (($x1308 (= $x8780 (or $x57 (not (= ((_ extract 6 6) (bvadd (_ bv1 7) (concat (_ bv0 1) ?x72))) (_ bv0 1)))))))
 (let (($x9393 (forall ((w (_ BitVec 256)) )(let ((?x10517 (storage_s x_0 w_2 x_CALLVALUE 0 w)))
 (let ((?x11458 (storage_s x_0 w_2 x_CALLVALUE 1 w)))
 (= ?x11458 ?x10517))))
 ))
 (let (($x4600 (forall ((n (_ BitVec 6)) )(let ((?x72 (sc_s 0)))
 (let (($x10283 (bvsle ?x72 n)))
 (let ((?x1786 (stack_s x_0 w_2 x_CALLVALUE 0 n)))
 (let ((?x11148 (stack_s x_0 w_2 x_CALLVALUE 1 n)))
 (or (= ?x11148 ?x1786) $x10283))))))
 ))
 (let (($x8172 (= ?x154 (bvadd (_ bv1 6) ?x72))))
 (let (($x5962 (forall ((w (_ BitVec 256)) )(let ((?x10517 (storage_s x_0 w_2 x_CALLVALUE 0 w)))
 (= ?x10517 (_ bv0 256))))
 ))
 (let (($x2104 (= ?x2153 0)))
 (let (($x2248 (not $x57)))
 (let (($x7863 (= (stack_s x_0 w_2 x_CALLVALUE 0 (_ bv0 6)) x_0)))
 (let (($x7461 (= ?x72 (_ bv1 6))))
 (and $x7461 $x7863 $x2248 $x2104 $x5962 (= (stack_s x_0 w_2 x_CALLVALUE 1 ?x72) w_2) (= (used_gas_s x_0 w_2 x_CALLVALUE 1) (+ 3 ?x2153)) $x8172 $x4600 $x9393 $x1308 $x8106 $x9459 (= ?x8111 (+ 3 (used_gas_s x_0 w_2 x_CALLVALUE 1))) $x2312 $x8602 $x5464 $x7833 (= (stack_s x_0 w_2 x_CALLVALUE 3 ?x2272) x_CALLVALUE) (= ?x6380 (+ 2 ?x8111)) $x2865 $x7806 $x2307 (= $x8103 (or $x10052 $x11936)) (= ?x5233 (stack_s x_0 w_2 x_CALLVALUE 3 (bvadd (_ bv62 6) ?x3851))) (= ?x2563 (stack_s x_0 w_2 x_CALLVALUE 3 (bvadd (_ bv63 6) ?x3851))) (= ?x8828 (+ 3 ?x6380)) $x6040 $x5073 $x8703 $x706 (= (stack_s x_0 w_2 x_CALLVALUE 5 (bvadd (_ bv63 6) ?x4319)) ?x6970) (= (stack_s x_0 w_2 x_CALLVALUE 5 ?x1473) ?x6970) (= (stack_s x_0 w_2 x_CALLVALUE 5 ?x3405) ?x2563) (= (stack_s x_0 w_2 x_CALLVALUE 5 ?x9405) ?x5233) $x6023 $x5789 $x11838 $x7501 $x4286 (= (stack_t x_0 w_2 x_CALLVALUE 1 ?x63) x_CALLVALUE) (= (used_gas_t x_0 w_2 x_CALLVALUE 1) (+ 2 ?x11631)) $x11820 $x8679 $x11589 $x71 (= (stack_t x_0 w_2 x_CALLVALUE 2 ?x9666) w_2) (= ?x4667 (+ 3 (used_gas_t x_0 w_2 x_CALLVALUE 1))) $x9195 $x11401 $x5560 $x4921 $x2336 $x11978 $x2856 (= ?x4341 (+ 3 ?x4667)) $x1017 $x5608 $x11427 $x4031 (= (stack_t x_0 w_2 x_CALLVALUE 4 ?x10013) w_2) $x7503 $x6477 $x3242 $x11012 $x2798 $x73 $x43 $x58 $x11138 $x6084 (not (and $x3074 $x7147 $x1994 $x2590)))))))))))))))))))))))))))))))))))))))))))))))))))))))))))))))))))))))))))))))))))))))))))))))))))
 )
(check-sat)
(get-proof)
